p cnf 386 460
7 8 2 21 22 0
7 8 2 21 -22 0
7 8 2 -21 23 0
7 8 2 -21 -23 0
-18 7 15 24 25 0
-18 7 15 24 -25 0
-18 7 15 -24 26 0
-18 7 15 -24 -26 0
13 1 14 27 28 0
13 1 14 27 -28 0
13 1 14 -27 29 0
13 1 14 -27 -29 0
-2 -19 1 30 31 0
-2 -19 1 30 -31 0
-2 -19 1 -30 32 0
-2 -19 1 -30 -32 0
13 19 8 33 34 0
13 19 8 33 -34 0
13 19 8 -33 35 0
13 19 8 -33 -35 0
-15 18 -10 36 37 0
-15 18 -10 36 -37 0
-15 18 -10 -36 38 0
-15 18 -10 -36 -38 0
15 -14 -9 39 40 0
15 -14 -9 39 -40 0
15 -14 -9 -39 41 0
15 -14 -9 -39 -41 0
-19 18 -9 42 43 0
-19 18 -9 42 -43 0
-19 18 -9 -42 44 0
-19 18 -9 -42 -44 0
2 -3 -20 45 46 0
2 -3 -20 45 -46 0
2 -3 -20 -45 47 0
2 -3 -20 -45 -47 0
-12 -7 13 48 49 0
-12 -7 13 48 -49 0
-12 -7 13 -48 50 0
-12 -7 13 -48 -50 0
-8 9 20 51 52 0
-8 9 20 51 -52 0
-8 9 20 -51 53 0
-8 9 20 -51 -53 0
12 -1 -20 54 55 0
12 -1 -20 54 -55 0
12 -1 -20 -54 56 0
12 -1 -20 -54 -56 0
5 -15 4 57 58 0
5 -15 4 57 -58 0
5 -15 4 -57 59 0
5 -15 4 -57 -59 0
6 -2 -1 60 61 0
6 -2 -1 60 -61 0
6 -2 -1 -60 62 0
6 -2 -1 -60 -62 0
-20 -3 7 63 64 0
-20 -3 7 63 -64 0
-20 -3 7 -63 65 0
-20 -3 7 -63 -65 0
8 -6 -9 66 67 0
8 -6 -9 66 -67 0
8 -6 -9 -66 68 0
8 -6 -9 -66 -68 0
-16 -13 19 69 70 0
-16 -13 19 69 -70 0
-16 -13 19 -69 71 0
-16 -13 19 -69 -71 0
9 -15 -7 72 73 0
9 -15 -7 72 -73 0
9 -15 -7 -72 74 0
9 -15 -7 -72 -74 0
9 -17 1 75 76 0
9 -17 1 75 -76 0
9 -17 1 -75 77 0
9 -17 1 -75 -77 0
7 18 20 78 79 0
7 18 20 78 -79 0
7 18 20 -78 80 0
7 18 20 -78 -80 0
9 -16 11 81 82 0
9 -16 11 81 -82 0
9 -16 11 -81 83 0
9 -16 11 -81 -83 0
-13 7 -3 84 85 0
-13 7 -3 84 -85 0
-13 7 -3 -84 86 0
-13 7 -3 -84 -86 0
-14 -9 8 87 88 0
-14 -9 8 87 -88 0
-14 -9 8 -87 89 0
-14 -9 8 -87 -89 0
-13 4 -1 90 91 0
-13 4 -1 90 -91 0
-13 4 -1 -90 92 0
-13 4 -1 -90 -92 0
-14 -10 -13 93 94 0
-14 -10 -13 93 -94 0
-14 -10 -13 -93 95 0
-14 -10 -13 -93 -95 0
6 12 -10 96 97 0
6 12 -10 96 -97 0
6 12 -10 -96 98 0
6 12 -10 -96 -98 0
18 10 -20 99 100 0
18 10 -20 99 -100 0
18 10 -20 -99 101 0
18 10 -20 -99 -101 0
2 -19 1 102 103 0
2 -19 1 102 -103 0
2 -19 1 -102 104 0
2 -19 1 -102 -104 0
15 18 -6 105 106 0
15 18 -6 105 -106 0
15 18 -6 -105 107 0
15 18 -6 -105 -107 0
-1 -19 7 108 109 0
-1 -19 7 108 -109 0
-1 -19 7 -108 110 0
-1 -19 7 -108 -110 0
13 1 -15 111 112 0
13 1 -15 111 -112 0
13 1 -15 -111 113 0
13 1 -15 -111 -113 0
-19 -4 -7 114 115 0
-19 -4 -7 114 -115 0
-19 -4 -7 -114 116 0
-19 -4 -7 -114 -116 0
-12 -14 16 117 118 0
-12 -14 16 117 -118 0
-12 -14 16 -117 119 0
-12 -14 16 -117 -119 0
17 -10 -7 120 121 0
17 -10 -7 120 -121 0
17 -10 -7 -120 122 0
17 -10 -7 -120 -122 0
19 -17 11 123 124 0
19 -17 11 123 -124 0
19 -17 11 -123 125 0
19 -17 11 -123 -125 0
8 3 -6 126 127 0
8 3 -6 126 -127 0
8 3 -6 -126 128 0
8 3 -6 -126 -128 0
19 4 16 129 130 0
19 4 16 129 -130 0
19 4 16 -129 131 0
19 4 16 -129 -131 0
-3 14 -1 132 133 0
-3 14 -1 132 -133 0
-3 14 -1 -132 134 0
-3 14 -1 -132 -134 0
-7 3 5 135 136 0
-7 3 5 135 -136 0
-7 3 5 -135 137 0
-7 3 5 -135 -137 0
-5 3 18 138 139 0
-5 3 18 138 -139 0
-5 3 18 -138 140 0
-5 3 18 -138 -140 0
1 -16 -11 141 142 0
1 -16 -11 141 -142 0
1 -16 -11 -141 143 0
1 -16 -11 -141 -143 0
-18 16 19 144 145 0
-18 16 19 144 -145 0
-18 16 19 -144 146 0
-18 16 19 -144 -146 0
-20 4 -14 147 148 0
-20 4 -14 147 -148 0
-20 4 -14 -147 149 0
-20 4 -14 -147 -149 0
-15 -7 1 150 151 0
-15 -7 1 150 -151 0
-15 -7 1 -150 152 0
-15 -7 1 -150 -152 0
-20 -4 -8 153 154 0
-20 -4 -8 153 -154 0
-20 -4 -8 -153 155 0
-20 -4 -8 -153 -155 0
-6 19 11 156 157 0
-6 19 11 156 -157 0
-6 19 11 -156 158 0
-6 19 11 -156 -158 0
11 -2 3 159 160 0
11 -2 3 159 -160 0
11 -2 3 -159 161 0
11 -2 3 -159 -161 0
9 -14 7 162 163 0
9 -14 7 162 -163 0
9 -14 7 -162 164 0
9 -14 7 -162 -164 0
20 8 -14 165 166 0
20 8 -14 165 -166 0
20 8 -14 -165 167 0
20 8 -14 -165 -167 0
-5 6 -18 168 169 0
-5 6 -18 168 -169 0
-5 6 -18 -168 170 0
-5 6 -18 -168 -170 0
-7 9 -15 171 172 0
-7 9 -15 171 -172 0
-7 9 -15 -171 173 0
-7 9 -15 -171 -173 0
4 14 -1 174 175 0
4 14 -1 174 -175 0
4 14 -1 -174 176 0
4 14 -1 -174 -176 0
-10 -11 9 177 178 0
-10 -11 9 177 -178 0
-10 -11 9 -177 179 0
-10 -11 9 -177 -179 0
-4 -12 -9 180 181 0
-4 -12 -9 180 -181 0
-4 -12 -9 -180 182 0
-4 -12 -9 -180 -182 0
11 16 2 183 184 0
11 16 2 183 -184 0
11 16 2 -183 185 0
11 16 2 -183 -185 0
-4 -14 -18 186 187 0
-4 -14 -18 186 -187 0
-4 -14 -18 -186 188 0
-4 -14 -18 -186 -188 0
15 -11 -17 189 190 0
15 -11 -17 189 -190 0
15 -11 -17 -189 191 0
15 -11 -17 -189 -191 0
11 -4 20 192 193 0
11 -4 20 192 -193 0
11 -4 20 -192 194 0
11 -4 20 -192 -194 0
-10 7 -8 195 196 0
-10 7 -8 195 -196 0
-10 7 -8 -195 197 0
-10 7 -8 -195 -197 0
15 -7 6 198 199 0
15 -7 6 198 -199 0
15 -7 6 -198 200 0
15 -7 6 -198 -200 0
16 4 7 201 202 0
16 4 7 201 -202 0
16 4 7 -201 203 0
16 4 7 -201 -203 0
1 12 19 204 205 0
1 12 19 204 -205 0
1 12 19 -204 206 0
1 12 19 -204 -206 0
-11 8 9 207 208 0
-11 8 9 207 -208 0
-11 8 9 -207 209 0
-11 8 9 -207 -209 0
-7 9 20 210 211 0
-7 9 20 210 -211 0
-7 9 20 -210 212 0
-7 9 20 -210 -212 0
-12 2 11 213 214 0
-12 2 11 213 -214 0
-12 2 11 -213 215 0
-12 2 11 -213 -215 0
-7 19 5 216 217 0
-7 19 5 216 -217 0
-7 19 5 -216 218 0
-7 19 5 -216 -218 0
-15 5 17 219 220 0
-15 5 17 219 -220 0
-15 5 17 -219 221 0
-15 5 17 -219 -221 0
-4 -17 -8 222 223 0
-4 -17 -8 222 -223 0
-4 -17 -8 -222 224 0
-4 -17 -8 -222 -224 0
2 -1 19 225 226 0
2 -1 19 225 -226 0
2 -1 19 -225 227 0
2 -1 19 -225 -227 0
-5 7 8 228 229 0
-5 7 8 228 -229 0
-5 7 8 -228 230 0
-5 7 8 -228 -230 0
-16 10 -9 231 232 0
-16 10 -9 231 -232 0
-16 10 -9 -231 233 0
-16 10 -9 -231 -233 0
5 -17 18 234 235 0
5 -17 18 234 -235 0
5 -17 18 -234 236 0
5 -17 18 -234 -236 0
2 14 -20 237 238 0
2 14 -20 237 -238 0
2 14 -20 -237 239 0
2 14 -20 -237 -239 0
-19 8 14 240 241 0
-19 8 14 240 -241 0
-19 8 14 -240 242 0
-19 8 14 -240 -242 0
-4 12 -15 243 244 0
-4 12 -15 243 -244 0
-4 12 -15 -243 245 0
-4 12 -15 -243 -245 0
2 7 10 246 247 0
2 7 10 246 -247 0
2 7 10 -246 248 0
2 7 10 -246 -248 0
-6 20 7 249 250 0
-6 20 7 249 -250 0
-6 20 7 -249 251 0
-6 20 7 -249 -251 0
-10 -2 -17 252 253 0
-10 -2 -17 252 -253 0
-10 -2 -17 -252 254 0
-10 -2 -17 -252 -254 0
3 -9 -13 255 256 0
3 -9 -13 255 -256 0
3 -9 -13 -255 257 0
3 -9 -13 -255 -257 0
2 11 8 258 259 0
2 11 8 258 -259 0
2 11 8 -258 260 0
2 11 8 -258 -260 0
-10 15 -18 261 262 0
-10 15 -18 261 -262 0
-10 15 -18 -261 263 0
-10 15 -18 -261 -263 0
16 9 20 264 265 0
16 9 20 264 -265 0
16 9 20 -264 266 0
16 9 20 -264 -266 0
10 14 -4 267 268 0
10 14 -4 267 -268 0
10 14 -4 -267 269 0
10 14 -4 -267 -269 0
-1 11 7 270 271 0
-1 11 7 270 -271 0
-1 11 7 -270 272 0
-1 11 7 -270 -272 0
-10 2 13 273 274 0
-10 2 13 273 -274 0
-10 2 13 -273 275 0
-10 2 13 -273 -275 0
6 20 -15 276 277 0
6 20 -15 276 -277 0
6 20 -15 -276 278 0
6 20 -15 -276 -278 0
3 6 -7 279 280 0
3 6 -7 279 -280 0
3 6 -7 -279 281 0
3 6 -7 -279 -281 0
4 18 -5 282 283 0
4 18 -5 282 -283 0
4 18 -5 -282 284 0
4 18 -5 -282 -284 0
-6 4 -13 285 286 0
-6 4 -13 285 -286 0
-6 4 -13 -285 287 0
-6 4 -13 -285 -287 0
-6 7 3 288 289 0
-6 7 3 288 -289 0
-6 7 3 -288 290 0
-6 7 3 -288 -290 0
16 -2 -11 291 292 0
16 -2 -11 291 -292 0
16 -2 -11 -291 293 0
16 -2 -11 -291 -293 0
294 295 297 301 309 0
294 295 297 301 -309 0
294 295 297 -301 310 0
294 295 297 -301 -310 0
294 295 -297 302 311 0
294 295 -297 302 -311 0
294 295 -297 -302 312 0
294 295 -297 -302 -312 0
294 -295 298 303 313 0
294 -295 298 303 -313 0
294 -295 298 -303 314 0
294 -295 298 -303 -314 0
294 -295 -298 304 315 0
294 -295 -298 304 -315 0
294 -295 -298 -304 316 0
294 -295 -298 -304 -316 0
-294 296 299 305 317 0
-294 296 299 305 -317 0
-294 296 299 -305 318 0
-294 296 299 -305 -318 0
-294 296 -299 306 319 0
-294 296 -299 306 -319 0
-294 296 -299 -306 320 0
-294 296 -299 -306 -320 0
-294 -296 300 307 321 0
-294 -296 300 307 -321 0
-294 -296 300 -307 322 0
-294 -296 300 -307 -322 0
-294 -296 -300 308 323 0
-294 -296 -300 308 -323 0
-294 -296 -300 -308 324 0
-294 -296 -300 -308 -324 0
325 326 328 332 340 0
325 326 328 332 -340 0
325 326 328 -332 341 0
325 326 328 -332 -341 0
325 326 -328 333 342 0
325 326 -328 333 -342 0
325 326 -328 -333 343 0
325 326 -328 -333 -343 0
325 -326 329 334 344 0
325 -326 329 334 -344 0
325 -326 329 -334 345 0
325 -326 329 -334 -345 0
325 -326 -329 335 346 0
325 -326 -329 335 -346 0
325 -326 -329 -335 347 0
325 -326 -329 -335 -347 0
-325 327 330 336 348 0
-325 327 330 336 -348 0
-325 327 330 -336 349 0
-325 327 330 -336 -349 0
-325 327 -330 337 350 0
-325 327 -330 337 -350 0
-325 327 -330 -337 351 0
-325 327 -330 -337 -351 0
-325 -327 331 338 352 0
-325 -327 331 338 -352 0
-325 -327 331 -338 353 0
-325 -327 331 -338 -353 0
-325 -327 -331 339 354 0
-325 -327 -331 339 -354 0
-325 -327 -331 -339 355 0
-325 -327 -331 -339 -355 0
356 357 359 363 371 0
356 357 359 363 -371 0
356 357 359 -363 372 0
356 357 359 -363 -372 0
356 357 -359 364 373 0
356 357 -359 364 -373 0
356 357 -359 -364 374 0
356 357 -359 -364 -374 0
356 -357 360 365 375 0
356 -357 360 365 -375 0
356 -357 360 -365 376 0
356 -357 360 -365 -376 0
356 -357 -360 366 377 0
356 -357 -360 366 -377 0
356 -357 -360 -366 378 0
356 -357 -360 -366 -378 0
-356 358 361 367 379 0
-356 358 361 367 -379 0
-356 358 361 -367 380 0
-356 358 361 -367 -380 0
-356 358 -361 368 381 0
-356 358 -361 368 -381 0
-356 358 -361 -368 382 0
-356 358 -361 -368 -382 0
-356 -358 362 369 383 0
-356 -358 362 369 -383 0
-356 -358 362 -369 384 0
-356 -358 362 -369 -384 0
-356 -358 -362 370 385 0
-356 -358 -362 370 -385 0
-356 -358 -362 -370 386 0
-356 -358 -362 -370 -386 0

